144	144	144	144	144	144	144	144	144	144	144	144	144	144	144	144
144	144	144	144	144	144	144	144	144	144	144	144	144	144	144	144	144	144	144	144	144	144	144	144	144	144	144	144	144	144	144	144	144	144	144
120	120
9.25	9.25	9.25	9.25	9.25	9.25
109.25	109.25	109.25	109.25	109.25	109.25	109.25
144	144	144	144	144	144	144	144	144	144	144	144	144	144	144
48
139.94	139.94
144	144	144	144	144	144	144	144
144	144
144
142.5
62	62	62	62	62
86	86	86	86	86	86	86	86	86	86	86	86	86	86	86	86	86	86	86	86	86	86	86	86	86
3	3	3	3
12.5	12.5	12.5	12.5
17.5	17.5
60	60
61	61	61	61	61	61	61	61	61	61	61	61
18	18
42	42
5.5	5.5	5.5	5.5
6	6	6	6	6	6
41	41	41	41	41	41	41	41	41	41	41	41	41	41	41	41	41	41	41	41	41	41	41	41	41	41	41	41	41	41	41	41	41	41	41	41	41	41	41	41	41	41	41	41	41	41	41	41	41	41	41	41	41	41	41	41	41	41	41	41	41	41	41	41	41	41	41	41	41	41	41	41	41	41	41	41	41	41	41	41	41	41	41	41	41	41	41	41	41	41	41	41	41	41	41	41	41	41	41	41	41	41	41	41	41	41	41
46	46	46	46	46	46	46	46	46	46	46	46	46	46	46	46
48	48	48	48	48	48	48	48	48	48	48	48	48	48	48	48
79.5	79.5	79.5	79.5	79.5	79.5
6	6	6	6	6	6	6	6	6	6	6	6	6	6	6	6	6	6	6	6
16.5	16.5	16.5	16.5	16.5	16.5	16.5	16.5	16.5	16.5	16.5	16.5	16.5	16.5	16.5	16.5	16.5	16.5	16.5	16.5	16.5	16.5	16.5	16.5	16.5	16.5	16.5	16.5	16.5	16.5	16.5	16.5	16.5	16.5	16.5	16.5	16.5	16.5	16.5	16.5	16.5	16.5	16.5	16.5	16.5
48	48	48	48	48	48	48	48	48	48	48	48	48	48	48
60	60	60	60	60	60	60	60	60	60	60	60	60	60	60	60	60	60	60	60	60	60	60	60	60	60	60	60	60	60
20.04	20.04	20.04	20.04	20.04	20.04	20.04	20.04	20.04	20.04
20.25	20.25	20.25	20.25	20.25	20.25	20.25	20.25	20.25	20.25	20.25	20.25	20.25	20.25	20.25	20.25	20.25	20.25	20.25	20.25	20.25	20.25	20.25	20.25	20.25	20.25	20.25	20.25	20.25	20.25	20.25	20.25	20.25	20.25	20.25	20.25	20.25	20.25	20.25	20.25	20.25	20.25	20.25	20.25	20.25	20.25	20.25	20.25	20.25	20.25	20.25	20.25	20.25	20.25	20.25	20.25	20.25	20.25	20.25	20.25	20.25	20.25	20.25	20.25	20.25	20.25	20.25	20.25	20.25	20.25	20.25	20.25	20.25	20.25	20.25	20.25	20.25	20.25	20.25	20.25	20.25	20.25	20.25	20.25	20.25	20.25	20.25	20.25	20.25	20.25	20.25	20.25	20.25	20.25	20.25	20.25
21	21	21	21	21
49.75	49.75
96	96	96	96	96	96	96	96	96	96	96	96	96	96	96	96	96	96	96	96	96
96	96	96	96	96	96	96	96	96	96	96	96	96	96	96	96	96	96	96	96	96	96	96	96	96	96	96	96	96	96	96	96	96	96	96	96	96	96	96	96	96	96	96	96	96
14.5	14.5	14.5	14.5	14.5	14.5	14.5	14.5	14.5	14.5	14.5	14.5	14.5	14.5	14.5	14.5	14.5	14.5	14.5	14.5	14.5	14.5
12	12	12	12	12	12
92.63	92.63	92.63	92.63	92.63	92.63	92.63	92.63	92.63	92.63	92.63	92.63	92.63	92.63	92.63
7.63	7.63	7.63	7.63	7.63	7.63	7.63	7.63	7.63	7.63	7.63	7.63	7.63	7.63	7.63	7.63	7.63	7.63	7.63	7.63	7.63	7.63	7.63	7.63	7.63	7.63	7.63	7.63	7.63	7.63	7.63	7.63	7.63	7.63	7.63	7.63	7.63	7.63	7.63	7.63	7.63	7.63	7.63	7.63	7.63	7.63	7.63	7.63	7.63	7.63	7.63	7.63	7.63	7.63	7.63	7.63	7.63	7.63	7.63	7.63	7.63	7.63	7.63	7.63	7.63	7.63	7.63	7.63	7.63
48	48	48	48	48	48	48	48	48	48	48	48	48	48	48	48	48	48
92.63	92.63	92.63	92.63	92.63	92.63	92.63	92.63	92.63	92.63	92.63	92.63	92.63	92.63	92.63	92.63	92.63	92.63
12
21.75	21.75
21.75	21.75	21.75	21.75	21.75	21.75	21.75	21.75	21.75	21.75	21.75	21.75	21.75	21.75	21.75	21.75	21.75	21.75	21.75	21.75	21.75	21.75	21.75	21.75	21.75	21.75	21.75	21.75	21.75	21.75	21.75	21.75	21.75	21.75	21.75	21.75	21.75	21.75	21.75	21.75	21.75	21.75	21.75	21.75	21.75	21.75	21.75	21.75	21.75	21.75	21.75	21.75	21.75	21.75	21.75	21.75	21.75	21.75	21.75	21.75	21.75	21.75	21.75	21.75	21.75	21.75	21.75	21.75	21.75	21.75	21.75	21.75	21.75	21.75	21.75	21.75	21.75	21.75	21.75	21.75
92.63	92.63	92.63	92.63	92.63	92.63	92.63	92.63	92.63	92.63	92.63	92.63	92.63	92.63	92.63	92.63	92.63	92.63	92.63	92.63	92.63	92.63	92.63	92.63	92.63	92.63	92.63	92.63	92.63	92.63	92.63	92.63	92.63	92.63	92.63	92.63	92.63	92.63	92.63	92.63	92.63	92.63	92.63	92.63	92.63	92.63	92.63	92.63	92.63	92.63	92.63	92.63	92.63	92.63	92.63	92.63	92.63	92.63	92.63	92.63	92.63	92.63	92.63	92.63	92.63	92.63	92.63	92.63	92.63	92.63	92.63	92.63	92.63	92.63	92.63	92.63	92.63	92.63	92.63	92.63	92.63	92.63	92.63	92.63	92.63	92.63	92.63	92.63	92.63	92.63	92.63	92.63	92.63	92.63	92.63	92.63	92.63	92.63	92.63	92.63	92.63	92.63	92.63	92.63	92.63	92.63	92.63	92.63	92.63	92.63	92.63	92.63	92.63	92.63	92.63	92.63	92.63	92.63	92.63	92.63	92.63	92.63	92.63	92.63	92.63	92.63	92.63	92.63
18.19
44.75
50.25
86.5
86.31	86.31
49.25	49.25
49.31	49.31
54.75	54.75
48.25	48.25	48.25	48.25
48.25	48.25	48.25	48.25
21.13	21.13	21.13	21.13	21.13	21.13	21.13	21.13	21.13	21.13	21.13	21.13	21.13	21.13	21.13	21.13	21.13	21.13	21.13	21.13
22.13	22.13	22.13	22.13	22.13	22.13	22.13	22.13	22.13	22.13	22.13	22.13	22.13	22.13	22.13	22.13	22.13	22.13	22.13	22.13	22.13	22.13	22.13	22.13	22.13	22.13	22.13	22.13	22.13	22.13	22.13	22.13	22.13	22.13	22.13	22.13	22.13	22.13	22.13	22.13	22.13	22.13	22.13	22.13	22.13	22.13	22.13	22.13	22.13	22.13	22.13	22.13	22.13	22.13	22.13	22.13	22.13	22.13	22.13	22.13
96	96	96	96	96	96	96	96	96	96
15.25	15.25	15.25	15.25	15.25	15.25	15.25	15.25
15.25	15.25	15.25	15.25
21	21	21	21
21	21	21	21	21	21	21	21
21.75	21.75	21.75	21.75
23.25	23.25	23.25	23.25
52.25	52.25	52.25	52.25	52.25	52.25	52.25	52.25	52.25	52.25	52.25
52.25	52.25	52.25
52.25	52.25	52.25	52.25
52.25	52.25
52.25	52.25
52.25
7.16
10.19
13.25
32.97
46.22
49.19